
  32    4
  10   10   10   10

   0   0   0   0   0   7 2 3 4 5 10 11 16 
   8   0   1   1   1   4 15 12 9 6 
   2   1   0   4   4   8 31 29 22 21 18 17 15 14 
   1   0   5   7   6   5 22 18 14 12 8 
   2   5   2   0   7   3 17 14 7 
   9   3   2   4   0   7 31 30 29 22 21 20 13 
   4   3   5   2   0   7 31 29 24 22 21 20 18 
   4   1   1   0   9   7 30 29 28 24 21 20 19 
   8   3   4   0   5   5 31 29 20 19 17 
   5   0   4   2   2   4 31 29 22 18 
   9   0   6   4   5   4 23 22 20 17 
   7   7   7   0   3   4 31 29 24 19 
   4   3   2   5   0   3 24 19 18 
   6   5   0   3   3   3 28 24 19 
   5   5   4   0   4   3 30 20 19 
  10   4   5   6   0   2 24 18 
   7   4   2   0   6   5 30 28 27 26 25 
  10   5   2   0   3   4 28 26 25 23 
   6   0   5   6   3   3 26 25 23 
   2   2   3   0   3   3 27 26 25 
   5   2  10   3   0   3 27 26 25 
   2   0   3   2   3   2 26 25 
   4   0   4   4   3   1 27 
   9   4   4   7   0   1 25 
   3   6   4   0   3   1 32
  10   3   4   0   3   1 32
   9   4   5   5   0   1 32
   3  10   0   2   4   1 32
   5   0   7   3   4   1 32
   2   0   2   6   6   1 32
   8   4   5   0   2   1 32
   0   0   0   0   0   0 
